c File: instances/22_0.45_3.col
c
c Description: Random graph of size 22 vertices and P(0.44999999999999996) of edges between any two vertices.
p col 22 231
e 1 2
e 1 6
e 1 15
e 1 17
e 1 18
e 1 19
e 1 20
e 1 21
e 1 22
e 2 4
e 2 5
e 2 8
e 2 9
e 2 20
e 2 22
e 3 4
e 3 6
e 3 7
e 3 13
e 3 15
e 3 16
e 3 19
e 3 20
e 3 22
e 4 5
e 4 7
e 4 9
e 4 10
e 4 11
e 4 12
e 4 13
e 4 14
e 5 8
e 5 10
e 5 11
e 5 13
e 5 15
e 5 16
e 5 18
e 5 19
e 5 20
e 6 8
e 6 9
e 6 10
e 6 11
e 6 12
e 6 13
e 6 14
e 6 15
e 6 18
e 6 20
e 6 21
e 7 8
e 7 13
e 7 17
e 7 18
e 7 19
e 7 22
e 8 9
e 8 11
e 8 13
e 8 14
e 8 15
e 8 16
e 8 19
e 8 20
e 8 22
e 9 12
e 9 13
e 9 14
e 9 15
e 9 19
e 9 21
e 10 11
e 10 12
e 10 14
e 10 15
e 10 16
e 10 17
e 10 18
e 10 20
e 10 22
e 11 15
e 11 16
e 11 19
e 11 20
e 12 15
e 12 19
e 13 15
e 13 17
e 13 18
e 13 20
e 13 22
e 14 18
e 14 20
e 14 21
e 15 17
e 15 19
e 15 20
e 15 21
e 16 17
e 16 18
e 16 19
e 16 22
e 17 19
e 17 22
e 18 19
e 18 21
e 18 22
e 21 22